c   #vars: 80   #clauses: 356   #literals: 980
c 
p cnf 80 356
-2 -3 0
-4 -5 0
-6 -7 0
-10 -11 0
-13 -14 0
-15 -16 0
-17 -18 0
-19 -20 0
-21 -22 0
-23 -24 0
8 -50 64 65 0
42 -66 71 72 0
-26 -27 0
-28 -29 0
-30 -31 0
-32 -33 0
-34 -35 0
-36 -37 0
-38 -39 0
-40 -41 0
13 14 45 -78 0
-43 -44 0
4 5 60 61 0
4 5 38 39 0
-17 23 24 68 0
43 44 79 80 0
30 31 52 53 0
50 51 66 67 0
6 7 52 53 0
-46 -47 0
-48 -49 0
-50 -51 0
-52 -53 0
-54 -55 0
-56 -57 0
-58 -59 0
38 39 66 67 0
-60 -61 0
-62 -63 0
-64 -65 0
-66 -67 0
1 50 51 -57 0
1 -51 60 61 0
-69 -70 0
-71 -72 0
-73 -74 0
17 18 52 53 0
-75 -76 0
-77 -78 0
-79 -80 0
46 47 52 53 0
-2 17 18 68 0
-1 -50 0
10 11 62 63 0
-1 -56 0
9 -26 48 49 0
-1 -60 0
-1 -73 0
-2 -40 0
-3 -41 0
9 -48 77 78 0
-2 -48 0
-3 -49 0
32 33 56 57 0
-2 -54 0
-3 -55 0
26 27 66 67 0
1 -61 73 74 0
-3 -68 0
-4 -30 0
-5 -31 0
2 3 40 41 0
-4 -34 0
-5 -35 0
50 51 60 61 0
-4 -38 0
-5 -39 0
6 7 60 61 0
38 39 56 57 0
25 38 39 -73 0
19 20 38 39 0
-4 -60 0
-5 -61 0
6 7 79 80 0
12 45 -54 -78 0
-4 -69 0
-5 -70 0
17 18 32 33 0
-4 -75 0
-5 -76 0
6 7 30 31 0
-6 -30 0
-7 -31 0
10 11 34 35 0
-6 -32 0
-7 -33 0
21 22 48 49 0
-6 -40 0
-7 -41 0
28 29 52 53 0
-6 -48 0
-7 -49 0
40 41 54 55 0
-6 -52 0
-7 -53 0
36 37 79 80 0
-6 -56 0
-7 -57 0
38 39 69 70 0
-6 -60 0
-7 -61 0
-6 -79 0
-7 -80 0
25 -38 75 76 0
-8 -27 0
4 5 75 76 0
-8 -51 0
17 18 28 29 0
-8 -65 0
42 56 57 -66 0
1 56 57 -61 0
12 31 -54 0
-9 -27 0
9 26 27 -77 0
12 30 31 -45 0
-9 -49 0
8 -26 50 51 0
-9 -78 0
13 14 73 74 0
-10 -34 0
-11 -35 0
13 14 64 65 0
-10 -36 0
-11 -37 0
13 14 43 44 0
-10 -46 0
-11 -47 0
-10 -62 0
-11 -63 0
1 50 51 -61 0
-10 -66 0
-11 -67 0
-12 -31 0
36 37 64 65 0
1 56 57 -74 0
-2 23 24 68 0
23 24 58 59 0
17 18 -23 68 0
8 26 27 -50 0
-12 -55 0
17 18 58 59 0
-13 -43 0
-14 -44 0
19 20 36 37 0
-13 -45 0
2 3 -23 68 0
15 16 62 63 0
-13 -56 0
-14 -57 0
-13 -64 0
-14 -65 0
1 50 51 -74 0
-13 -73 0
-14 -74 0
21 22 43 44 0
-15 -28 0
-16 -29 0
19 20 43 44 0
-15 -30 0
-16 -31 0
6 7 32 33 0
-15 -50 0
-16 -51 0
46 47 54 55 0
-15 -62 0
-16 -63 0
-15 -79 0
-16 -80 0
4 5 34 35 0
-17 -28 0
-18 -29 0
34 35 77 78 0
-17 -32 0
-18 -33 0
36 37 71 72 0
-17 -46 0
-18 -47 0
-17 -52 0
-18 -53 0
23 24 36 37 0
-17 -58 0
-18 -59 0
1 -57 73 74 0
-18 -68 0
23 24 62 63 0
-19 -36 0
-20 -37 0
1 60 61 -74 0
-19 -38 0
-20 -39 0
4 5 30 31 0
-19 -43 0
-20 -44 0
6 7 40 41 0
-19 -58 0
-20 -59 0
30 31 69 70 0
-19 -75 0
-20 -76 0
40 41 60 61 0
-21 -38 0
-22 -39 0
9 48 49 -77 0
-21 -43 0
-22 -44 0
10 11 36 37 0
-21 -48 0
-22 -49 0
50 51 73 74 0
-21 -58 0
-22 -59 0
32 33 69 70 0
-23 -36 0
-24 -37 0
15 16 30 31 0
-23 -58 0
-24 -59 0
9 -26 77 78 0
-23 -62 0
-24 -63 0
30 31 54 55 0
1 -51 73 74 0
-24 -68 0
8 50 51 -64 0
-23 -71 0
-24 -72 0
6 7 56 57 0
34 35 79 80 0
25 38 39 -75 0
8 -26 64 65 0
25 73 74 -75 0
1 -57 60 61 0
8 26 27 -64 0
25 -38 73 74 0
1 -51 56 57 0
42 -56 71 72 0
-25 -39 0
12 -14 -30 45 0
42 66 67 -71 0
-25 -74 0
42 -56 66 67 0
-25 -76 0
46 47 62 63 0
-26 -66 0
-27 -67 0
46 47 77 78 0
-28 -52 0
-29 -53 0
4 5 69 70 0
-28 -58 0
-29 -59 0
2 3 54 55 0
-30 -52 0
-31 -53 0
10 11 66 67 0
-30 -54 0
-31 -55 0
40 41 56 57 0
-30 -69 0
-31 -70 0
48 49 75 76 0
-30 -71 0
-31 -72 0
34 35 64 65 0
-32 -56 0
-33 -57 0
25 -73 75 76 0
-32 -58 0
-33 -59 0
-32 -69 0
-33 -70 0
6 7 48 49 0
-34 -64 0
-35 -65 0
12 -30 55 0
-34 -77 0
-35 -78 0
-34 -79 0
-35 -80 0
-36 -64 0
-37 -65 0
19 20 75 76 0
-36 -71 0
-37 -72 0
17 18 46 47 0
-36 -79 0
-37 -80 0
50 51 71 72 0
-38 -56 0
-39 -57 0
23 24 71 72 0
-38 -66 0
-39 -67 0
30 31 71 72 0
-38 -69 0
-39 -70 0
-40 -54 0
-41 -55 0
2 3 48 49 0
-40 -56 0
-41 -57 0
21 22 58 59 0
-40 -60 0
-41 -61 0
15 16 79 80 0
-12 13 14 45 0
-42 -57 0
15 16 28 29 0
-14 45 77 78 0
-42 -67 0
15 16 50 51 0
-12 45 77 78 0
-42 -72 0
10 11 46 47 0
-43 -79 0
-44 -80 0
12 -45 54 55 0
9 26 27 -48 0
-45 -77 0
2 3 -17 68 0
28 29 58 59 0
-46 -52 0
-47 -53 0
12 -14 45 -54 0
-46 -54 0
-47 -55 0
13 14 56 57 0
-46 -62 0
-47 -63 0
-46 -77 0
-47 -78 0
19 20 58 59 0
-48 -75 0
-49 -76 0
21 22 38 39 0
-50 -60 0
-51 -61 0
12 -30 45 -78 0
-50 -66 0
-51 -67 0
42 56 57 -71 0
-50 -71 0
-51 -72 0
32 33 58 59 0
-50 -73 0
-51 -74 0
